c description: Random 3-CNF over 20 variables and 85 clauses
c generator: CNFgen (0.9.2)
c copyright: (C) 2012-2022 Massimo Lauria <massimo.lauria@uniroma1.it>
c url: https://massimolauria.net/cnfgen
c command line: cnfgen --output CNF_4.28/20_bit_85_275.cnf randkcnf 3 20 85
c
p cnf 20 85
3 12 -14 0
1 -2 -7 0
-2 -5 -16 0
-2 -10 16 0
2 10 -15 0
-16 18 20 0
8 14 20 0
-5 9 -16 0
-10 18 -20 0
-6 12 -19 0
1 11 -20 0
-3 6 -14 0
-1 11 13 0
-3 5 -7 0
2 5 11 0
4 -15 20 0
-15 16 20 0
-5 16 17 0
10 -14 -20 0
-1 -15 -16 0
-12 -14 -20 0
14 18 -20 0
-17 18 19 0
-13 14 20 0
1 -6 -20 0
7 8 20 0
2 19 -20 0
-3 -4 -6 0
6 -12 -18 0
-6 11 19 0
-1 -2 -18 0
2 3 17 0
9 -12 15 0
-3 9 17 0
11 13 -18 0
-1 -2 12 0
4 12 -17 0
4 8 20 0
-5 -8 13 0
5 -11 -18 0
1 14 17 0
-4 -12 -17 0
4 13 15 0
2 -12 18 0
4 5 -11 0
-16 -17 19 0
-4 7 -14 0
-6 -14 -18 0
5 13 18 0
8 12 -18 0
9 12 -14 0
-6 11 -18 0
-1 2 -5 0
2 -13 19 0
-13 -15 19 0
6 9 10 0
4 -8 -20 0
-2 5 7 0
-10 16 19 0
5 -7 8 0
17 -18 -20 0
-2 -11 20 0
-1 19 -20 0
-6 -10 14 0
5 -17 19 0
-3 15 -17 0
-2 -13 19 0
1 11 19 0
-1 8 -18 0
5 -14 -18 0
3 -14 16 0
6 -8 -19 0
7 11 14 0
-6 -11 12 0
12 17 -19 0
-7 12 -14 0
-4 5 11 0
9 11 -14 0
4 -12 18 0
-5 -6 -11 0
8 -14 -15 0
-10 -18 -20 0
-2 -14 15 0
7 8 -17 0
5 -14 19 0
